(declare-fun bvlambda_15_ ()Bool         )
(declare-fun a91 () (Array (_ BitVec 1) (_ BitVec 4)))
(assert
(let (($e3 (_ bv0 4)))
(let (($e257 (store a91 true        $e3)))
(
                 extract(select $e257(not bvlambda_15_))
                                                                                                                                                                                                                                                                                                                                                                                                                                                                                                                                                                                                                                                                                                                                                                                                                                                                                                             ) )                                                                                                                                                                                                                                   )  )
